%SETS
JOBS     = 1..5;
MACHINES = 1..5;
SPEED    = 1;

time        = array3d(JOBS,MACHINES,1..SPEED,[6, 3, 14, 21, 3, 9, 4, 5, 16, 1, 1, 1, 11, 9, 12, 24, 10, 3, 9, 1, 6, 1, 18, 4, 3]);
energy      = array3d(JOBS,MACHINES,1..SPEED,[94, 97, 86, 81, 97, 91, 96, 95, 85, 99, 99, 99, 89, 91, 88, 78, 90, 97, 91, 99, 94, 99, 83, 96, 97]);
precedence  = array2d(JOBS,MACHINES,[4, 2, 1, 0, 3, 4, 3, 1, 2, 0, 2, 3, 0, 4, 1, 3, 0, 1, 2, 4, 4, 3, 1, 2, 0]);
releaseDate = array2d(JOBS,MACHINES,[91, 80, 60, 30, 87, 56, 52, 21, 28, 20, 99, 101, 70, 102, 81, 48, 20, 32, 35, 76, 39, 38, 7, 34, 0]);
dueDate     = array2d(JOBS,MACHINES,[98, 87, 80, 60, 91, 65, 56, 28, 52, 21, 101, 102, 81, 115, 99, 76, 32, 35, 48, 77, 48, 39, 34, 38, 7]);